Maximize
  18 x0_0_ + 18 x0_1_ + 18 x0_2_ + 18 x0_3_ + 18 x0_4_ + 18 x0_5_ + 14 x0_6_
   + 4 x0_7_ + 4 x0_8_ + 4 x0_9_ + 288 x1_7_ + 288 x1_8_ + 288 x1_9_
   + 34 x2_7_ + 34 x2_8_ + 34 x2_9_ + 18 x3_0_ + 18 x3_1_ + 18 x3_2_
   + 18 x3_3_ + 18 x3_4_ + 18 x3_5_ + 14 x3_6_ + 4 x3_7_ + 4 x3_8_
   + 4 x3_9_ + 45 x4_0_ + 45 x4_1_ + 45 x4_2_ + 45 x4_3_ + 45 x4_4_
   + 45 x4_5_ + 35 x4_6_ + 10 x4_7_ + 10 x4_8_ + 10 x4_9_ + 51 x5_7_
   + 51 x5_8_ + 51 x5_9_ + 72 x6_7_ + 72 x6_8_ + 72 x6_9_ + 17 x7_7_
   + 17 x7_8_ + 17 x7_9_ + 72 x8_7_ + 72 x8_8_ + 72 x8_9_ + 34 x9_7_
   + 34 x9_8_ + 34 x9_9_ + 360 x10_7_ + 360 x10_8_ + 360 x10_9_ + 27 x11_0_
   + 27 x11_1_ + 27 x11_2_ + 27 x11_3_ + 27 x11_4_ + 27 x11_5_ + 21 x11_6_
   + 6 x11_7_ + 6 x11_8_ + 6 x11_9_ + 51 x12_7_ + 51 x12_8_ + 51 x12_9_
   + 9 x13_0_ + 9 x13_1_ + 9 x13_2_ + 9 x13_3_ + 9 x13_4_ + 9 x13_5_
   + 7 x13_6_ + 2 x13_7_ + 2 x13_8_ + 2 x13_9_ + 576 x14_7_ + 576 x14_8_
   + 576 x14_9_ + 27 x15_0_ + 27 x15_1_ + 27 x15_2_ + 27 x15_3_ + 27 x15_4_
   + 27 x15_5_ + 21 x15_6_ + 6 x15_7_ + 6 x15_8_ + 6 x15_9_ + 36 x16_0_
   + 36 x16_1_ + 36 x16_2_ + 36 x16_3_ + 36 x16_4_ + 36 x16_5_ + 28 x16_6_
   + 8 x16_7_ + 8 x16_8_ + 8 x16_9_ + 18 x17_0_ + 18 x17_1_ + 18 x17_2_
   + 18 x17_3_ + 18 x17_4_ + 18 x17_5_ + 14 x17_6_ + 4 x17_7_ + 4 x17_8_
   + 4 x17_9_ + 72 x18_7_ + 72 x18_8_ + 72 x18_9_ + 9 x19_0_ + 9 x19_1_
   + 9 x19_2_ + 9 x19_3_ + 9 x19_4_ + 9 x19_5_ + 7 x19_6_ + 2 x19_7_
   + 2 x19_8_ + 2 x19_9_
Subject To
 R0: x0_0_ + x0_1_ + x0_2_ + x0_3_ + x0_4_ + x0_5_ + x0_6_ + x0_7_ + x0_8_
   + x0_9_ + x0_n_ = 1
 R1: x1_6_ + x1_7_ + x1_8_ + x1_9_ + x1_n_ = 1
 R2: x2_7_ + x2_8_ + x2_9_ + x2_n_ = 1
 R3: x3_0_ + x3_1_ + x3_2_ + x3_3_ + x3_4_ + x3_5_ + x3_6_ + x3_7_ + x3_8_
   + x3_9_ + x3_n_ = 1
 R4: x4_0_ + x4_1_ + x4_2_ + x4_3_ + x4_4_ + x4_5_ + x4_6_ + x4_7_ + x4_8_
   + x4_9_ + x4_n_ = 1
 R5: x5_7_ + x5_8_ + x5_9_ + x5_n_ = 1
 R6: x6_6_ + x6_7_ + x6_8_ + x6_9_ + x6_n_ = 1
 R7: x7_7_ + x7_8_ + x7_9_ + x7_n_ = 1
 R8: x8_6_ + x8_7_ + x8_8_ + x8_9_ + x8_n_ = 1
 R9: x9_7_ + x9_8_ + x9_9_ + x9_n_ = 1
 R10: x10_6_ + x10_7_ + x10_8_ + x10_9_ + x10_n_ = 1
 R11: x11_0_ + x11_1_ + x11_2_ + x11_3_ + x11_4_ + x11_5_ + x11_6_ + x11_7_
   + x11_8_ + x11_9_ + x11_n_ = 1
 R12: x12_7_ + x12_8_ + x12_9_ + x12_n_ = 1
 R13: x13_0_ + x13_1_ + x13_2_ + x13_3_ + x13_4_ + x13_5_ + x13_6_ + x13_7_
   + x13_8_ + x13_9_ + x13_n_ = 1
 R14: x14_6_ + x14_7_ + x14_8_ + x14_9_ + x14_n_ = 1
 R15: x15_0_ + x15_1_ + x15_2_ + x15_3_ + x15_4_ + x15_5_ + x15_6_ + x15_7_
   + x15_8_ + x15_9_ + x15_n_ = 1
 R16: x16_0_ + x16_1_ + x16_2_ + x16_3_ + x16_4_ + x16_5_ + x16_6_ + x16_7_
   + x16_8_ + x16_9_ + x16_n_ = 1
 R17: x17_0_ + x17_1_ + x17_2_ + x17_3_ + x17_4_ + x17_5_ + x17_6_ + x17_7_
   + x17_8_ + x17_9_ + x17_n_ = 1
 R18: x18_6_ + x18_7_ + x18_8_ + x18_9_ + x18_n_ = 1
 R19: x19_0_ + x19_1_ + x19_2_ + x19_3_ + x19_4_ + x19_5_ + x19_6_ + x19_7_
   + x19_8_ + x19_9_ + x19_n_ = 1
 R20: x0_0_ + x11_0_ <= 1
 R21: x0_1_ + x11_1_ <= 1
 R22: x0_2_ + x11_2_ <= 1
 R23: x0_3_ + x11_3_ <= 1
 R24: x0_4_ + x11_4_ <= 1
 R25: x0_5_ + x11_5_ <= 1
 R26: x0_6_ + x11_6_ <= 1
 R27: x0_7_ + x11_7_ <= 1
 R28: x0_8_ + x11_8_ <= 1
 R29: x0_9_ + x11_9_ <= 1
 R30: x0_0_ + x16_0_ <= 1
 R31: x0_1_ + x16_1_ <= 1
 R32: x0_2_ + x16_2_ <= 1
 R33: x0_3_ + x16_3_ <= 1
 R34: x0_4_ + x16_4_ <= 1
 R35: x0_5_ + x16_5_ <= 1
 R36: x0_6_ + x16_6_ <= 1
 R37: x0_7_ + x16_7_ <= 1
 R38: x0_8_ + x16_8_ <= 1
 R39: x0_9_ + x16_9_ <= 1
 R40: x0_6_ + x1_6_ <= 1
 R41: x0_7_ + x1_7_ <= 1
 R42: x0_8_ + x1_8_ <= 1
 R43: x0_9_ + x1_9_ <= 1
 R44: x1_6_ + x10_6_ <= 1
 R45: x1_7_ + x10_7_ <= 1
 R46: x1_8_ + x10_8_ <= 1
 R47: x1_9_ + x10_9_ <= 1
 R48: x1_6_ + x11_6_ <= 1
 R49: x1_7_ + x11_7_ <= 1
 R50: x1_8_ + x11_8_ <= 1
 R51: x1_9_ + x11_9_ <= 1
 R52: x1_6_ + x14_6_ <= 1
 R53: x1_7_ + x14_7_ <= 1
 R54: x1_8_ + x14_8_ <= 1
 R55: x1_9_ + x14_9_ <= 1
 R56: x1_6_ + x16_6_ <= 1
 R57: x1_7_ + x16_7_ <= 1
 R58: x1_8_ + x16_8_ <= 1
 R59: x1_9_ + x16_9_ <= 1
 R60: x2_7_ + x3_7_ <= 1
 R61: x2_8_ + x3_8_ <= 1
 R62: x2_9_ + x3_9_ <= 1
 R63: x2_7_ + x4_7_ <= 1
 R64: x2_8_ + x4_8_ <= 1
 R65: x2_9_ + x4_9_ <= 1
 R66: x2_7_ + x8_7_ <= 1
 R67: x2_8_ + x8_8_ <= 1
 R68: x2_9_ + x8_9_ <= 1
 R69: x2_7_ + x9_7_ <= 1
 R70: x2_8_ + x9_8_ <= 1
 R71: x2_9_ + x9_9_ <= 1
 R72: x2_7_ + x12_7_ <= 1
 R73: x2_8_ + x12_8_ <= 1
 R74: x2_9_ + x12_9_ <= 1
 R75: x2_7_ + x14_7_ <= 1
 R76: x2_8_ + x14_8_ <= 1
 R77: x2_9_ + x14_9_ <= 1
 R78: x2_7_ + x17_7_ <= 1
 R79: x2_8_ + x17_8_ <= 1
 R80: x2_9_ + x17_9_ <= 1
 R81: x3_0_ + x4_0_ <= 1
 R82: x3_1_ + x4_1_ <= 1
 R83: x3_2_ + x4_2_ <= 1
 R84: x3_3_ + x4_3_ <= 1
 R85: x3_4_ + x4_4_ <= 1
 R86: x3_5_ + x4_5_ <= 1
 R87: x3_6_ + x4_6_ <= 1
 R88: x3_7_ + x4_7_ <= 1
 R89: x3_8_ + x4_8_ <= 1
 R90: x3_9_ + x4_9_ <= 1
 R91: x3_0_ + x17_0_ <= 1
 R92: x3_1_ + x17_1_ <= 1
 R93: x3_2_ + x17_2_ <= 1
 R94: x3_3_ + x17_3_ <= 1
 R95: x3_4_ + x17_4_ <= 1
 R96: x3_5_ + x17_5_ <= 1
 R97: x3_6_ + x17_6_ <= 1
 R98: x3_7_ + x17_7_ <= 1
 R99: x3_8_ + x17_8_ <= 1
 R100: x3_9_ + x17_9_ <= 1
 R101: x3_0_ + x4_0_ <= 1
 R102: x3_1_ + x4_1_ <= 1
 R103: x3_2_ + x4_2_ <= 1
 R104: x3_3_ + x4_3_ <= 1
 R105: x3_4_ + x4_4_ <= 1
 R106: x3_5_ + x4_5_ <= 1
 R107: x3_6_ + x4_6_ <= 1
 R108: x3_7_ + x4_7_ <= 1
 R109: x3_8_ + x4_8_ <= 1
 R110: x3_9_ + x4_9_ <= 1
 R111: x4_0_ + x15_0_ <= 1
 R112: x4_1_ + x15_1_ <= 1
 R113: x4_2_ + x15_2_ <= 1
 R114: x4_3_ + x15_3_ <= 1
 R115: x4_4_ + x15_4_ <= 1
 R116: x4_5_ + x15_5_ <= 1
 R117: x4_6_ + x15_6_ <= 1
 R118: x4_7_ + x15_7_ <= 1
 R119: x4_8_ + x15_8_ <= 1
 R120: x4_9_ + x15_9_ <= 1
 R121: x4_0_ + x17_0_ <= 1
 R122: x4_1_ + x17_1_ <= 1
 R123: x4_2_ + x17_2_ <= 1
 R124: x4_3_ + x17_3_ <= 1
 R125: x4_4_ + x17_4_ <= 1
 R126: x4_5_ + x17_5_ <= 1
 R127: x4_6_ + x17_6_ <= 1
 R128: x4_7_ + x17_7_ <= 1
 R129: x4_8_ + x17_8_ <= 1
 R130: x4_9_ + x17_9_ <= 1
 R131: x4_0_ + x19_0_ <= 1
 R132: x4_1_ + x19_1_ <= 1
 R133: x4_2_ + x19_2_ <= 1
 R134: x4_3_ + x19_3_ <= 1
 R135: x4_4_ + x19_4_ <= 1
 R136: x4_5_ + x19_5_ <= 1
 R137: x4_6_ + x19_6_ <= 1
 R138: x4_7_ + x19_7_ <= 1
 R139: x4_8_ + x19_8_ <= 1
 R140: x4_9_ + x19_9_ <= 1
 R141: x0_7_ + x5_7_ <= 1
 R142: x0_8_ + x5_8_ <= 1
 R143: x0_9_ + x5_9_ <= 1
 R144: x1_7_ + x5_7_ <= 1
 R145: x1_8_ + x5_8_ <= 1
 R146: x1_9_ + x5_9_ <= 1
 R147: x5_7_ + x10_7_ <= 1
 R148: x5_8_ + x10_8_ <= 1
 R149: x5_9_ + x10_9_ <= 1
 R150: x5_7_ + x11_7_ <= 1
 R151: x5_8_ + x11_8_ <= 1
 R152: x5_9_ + x11_9_ <= 1
 R153: x5_7_ + x12_7_ <= 1
 R154: x5_8_ + x12_8_ <= 1
 R155: x5_9_ + x12_9_ <= 1
 R156: x5_7_ + x14_7_ <= 1
 R157: x5_8_ + x14_8_ <= 1
 R158: x5_9_ + x14_9_ <= 1
 R159: x5_7_ + x16_7_ <= 1
 R160: x5_8_ + x16_8_ <= 1
 R161: x5_9_ + x16_9_ <= 1
 R162: x6_6_ + x13_6_ <= 1
 R163: x6_7_ + x13_7_ <= 1
 R164: x6_8_ + x13_8_ <= 1
 R165: x6_9_ + x13_9_ <= 1
 R166: x6_6_ + x15_6_ <= 1
 R167: x6_7_ + x15_7_ <= 1
 R168: x6_8_ + x15_8_ <= 1
 R169: x6_9_ + x15_9_ <= 1
 R170: x3_6_ + x8_6_ <= 1
 R171: x3_7_ + x8_7_ <= 1
 R172: x3_8_ + x8_8_ <= 1
 R173: x3_9_ + x8_9_ <= 1
 R174: x4_6_ + x8_6_ <= 1
 R175: x4_7_ + x8_7_ <= 1
 R176: x4_8_ + x8_8_ <= 1
 R177: x4_9_ + x8_9_ <= 1
 R178: x8_6_ + x14_6_ <= 1
 R179: x8_7_ + x14_7_ <= 1
 R180: x8_8_ + x14_8_ <= 1
 R181: x8_9_ + x14_9_ <= 1
 R182: x8_6_ + x17_6_ <= 1
 R183: x8_7_ + x17_7_ <= 1
 R184: x8_8_ + x17_8_ <= 1
 R185: x8_9_ + x17_9_ <= 1
 R186: x2_7_ + x9_7_ <= 1
 R187: x2_8_ + x9_8_ <= 1
 R188: x2_9_ + x9_9_ <= 1
 R189: x3_7_ + x9_7_ <= 1
 R190: x3_8_ + x9_8_ <= 1
 R191: x3_9_ + x9_9_ <= 1
 R192: x4_7_ + x9_7_ <= 1
 R193: x4_8_ + x9_8_ <= 1
 R194: x4_9_ + x9_9_ <= 1
 R195: x8_7_ + x9_7_ <= 1
 R196: x8_8_ + x9_8_ <= 1
 R197: x8_9_ + x9_9_ <= 1
 R198: x9_7_ + x12_7_ <= 1
 R199: x9_8_ + x12_8_ <= 1
 R200: x9_9_ + x12_9_ <= 1
 R201: x9_7_ + x14_7_ <= 1
 R202: x9_8_ + x14_8_ <= 1
 R203: x9_9_ + x14_9_ <= 1
 R204: x9_7_ + x17_7_ <= 1
 R205: x9_8_ + x17_8_ <= 1
 R206: x9_9_ + x17_9_ <= 1
 R207: x0_6_ + x10_6_ <= 1
 R208: x0_7_ + x10_7_ <= 1
 R209: x0_8_ + x10_8_ <= 1
 R210: x0_9_ + x10_9_ <= 1
 R211: x1_6_ + x10_6_ <= 1
 R212: x1_7_ + x10_7_ <= 1
 R213: x1_8_ + x10_8_ <= 1
 R214: x1_9_ + x10_9_ <= 1
 R215: x10_6_ + x11_6_ <= 1
 R216: x10_7_ + x11_7_ <= 1
 R217: x10_8_ + x11_8_ <= 1
 R218: x10_9_ + x11_9_ <= 1
 R219: x10_6_ + x14_6_ <= 1
 R220: x10_7_ + x14_7_ <= 1
 R221: x10_8_ + x14_8_ <= 1
 R222: x10_9_ + x14_9_ <= 1
 R223: x10_6_ + x16_6_ <= 1
 R224: x10_7_ + x16_7_ <= 1
 R225: x10_8_ + x16_8_ <= 1
 R226: x10_9_ + x16_9_ <= 1
 R227: x0_0_ + x11_0_ <= 1
 R228: x0_1_ + x11_1_ <= 1
 R229: x0_2_ + x11_2_ <= 1
 R230: x0_3_ + x11_3_ <= 1
 R231: x0_4_ + x11_4_ <= 1
 R232: x0_5_ + x11_5_ <= 1
 R233: x0_6_ + x11_6_ <= 1
 R234: x0_7_ + x11_7_ <= 1
 R235: x0_8_ + x11_8_ <= 1
 R236: x0_9_ + x11_9_ <= 1
 R237: x11_0_ + x16_0_ <= 1
 R238: x11_1_ + x16_1_ <= 1
 R239: x11_2_ + x16_2_ <= 1
 R240: x11_3_ + x16_3_ <= 1
 R241: x11_4_ + x16_4_ <= 1
 R242: x11_5_ + x16_5_ <= 1
 R243: x11_6_ + x16_6_ <= 1
 R244: x11_7_ + x16_7_ <= 1
 R245: x11_8_ + x16_8_ <= 1
 R246: x11_9_ + x16_9_ <= 1
 R247: x2_7_ + x12_7_ <= 1
 R248: x2_8_ + x12_8_ <= 1
 R249: x2_9_ + x12_9_ <= 1
 R250: x3_7_ + x12_7_ <= 1
 R251: x3_8_ + x12_8_ <= 1
 R252: x3_9_ + x12_9_ <= 1
 R253: x4_7_ + x12_7_ <= 1
 R254: x4_8_ + x12_8_ <= 1
 R255: x4_9_ + x12_9_ <= 1
 R256: x5_7_ + x12_7_ <= 1
 R257: x5_8_ + x12_8_ <= 1
 R258: x5_9_ + x12_9_ <= 1
 R259: x8_7_ + x12_7_ <= 1
 R260: x8_8_ + x12_8_ <= 1
 R261: x8_9_ + x12_9_ <= 1
 R262: x9_7_ + x12_7_ <= 1
 R263: x9_8_ + x12_8_ <= 1
 R264: x9_9_ + x12_9_ <= 1
 R265: x10_7_ + x12_7_ <= 1
 R266: x10_8_ + x12_8_ <= 1
 R267: x10_9_ + x12_9_ <= 1
 R268: x11_7_ + x12_7_ <= 1
 R269: x11_8_ + x12_8_ <= 1
 R270: x11_9_ + x12_9_ <= 1
 R271: x12_7_ + x14_7_ <= 1
 R272: x12_8_ + x14_8_ <= 1
 R273: x12_9_ + x14_9_ <= 1
 R274: x12_7_ + x16_7_ <= 1
 R275: x12_8_ + x16_8_ <= 1
 R276: x12_9_ + x16_9_ <= 1
 R277: x12_7_ + x17_7_ <= 1
 R278: x12_8_ + x17_8_ <= 1
 R279: x12_9_ + x17_9_ <= 1
 R280: x12_7_ + x18_7_ <= 1
 R281: x12_8_ + x18_8_ <= 1
 R282: x12_9_ + x18_9_ <= 1
 R283: x13_0_ + x15_0_ <= 1
 R284: x13_1_ + x15_1_ <= 1
 R285: x13_2_ + x15_2_ <= 1
 R286: x13_3_ + x15_3_ <= 1
 R287: x13_4_ + x15_4_ <= 1
 R288: x13_5_ + x15_5_ <= 1
 R289: x13_6_ + x15_6_ <= 1
 R290: x13_7_ + x15_7_ <= 1
 R291: x13_8_ + x15_8_ <= 1
 R292: x13_9_ + x15_9_ <= 1
 R293: x0_6_ + x14_6_ <= 1
 R294: x0_7_ + x14_7_ <= 1
 R295: x0_8_ + x14_8_ <= 1
 R296: x0_9_ + x14_9_ <= 1
 R297: x1_6_ + x14_6_ <= 1
 R298: x1_7_ + x14_7_ <= 1
 R299: x1_8_ + x14_8_ <= 1
 R300: x1_9_ + x14_9_ <= 1
 R301: x3_6_ + x14_6_ <= 1
 R302: x3_7_ + x14_7_ <= 1
 R303: x3_8_ + x14_8_ <= 1
 R304: x3_9_ + x14_9_ <= 1
 R305: x4_6_ + x14_6_ <= 1
 R306: x4_7_ + x14_7_ <= 1
 R307: x4_8_ + x14_8_ <= 1
 R308: x4_9_ + x14_9_ <= 1
 R309: x8_6_ + x14_6_ <= 1
 R310: x8_7_ + x14_7_ <= 1
 R311: x8_8_ + x14_8_ <= 1
 R312: x8_9_ + x14_9_ <= 1
 R313: x10_6_ + x14_6_ <= 1
 R314: x10_7_ + x14_7_ <= 1
 R315: x10_8_ + x14_8_ <= 1
 R316: x10_9_ + x14_9_ <= 1
 R317: x11_6_ + x14_6_ <= 1
 R318: x11_7_ + x14_7_ <= 1
 R319: x11_8_ + x14_8_ <= 1
 R320: x11_9_ + x14_9_ <= 1
 R321: x14_6_ + x16_6_ <= 1
 R322: x14_7_ + x16_7_ <= 1
 R323: x14_8_ + x16_8_ <= 1
 R324: x14_9_ + x16_9_ <= 1
 R325: x14_6_ + x17_6_ <= 1
 R326: x14_7_ + x17_7_ <= 1
 R327: x14_8_ + x17_8_ <= 1
 R328: x14_9_ + x17_9_ <= 1
 R329: x14_6_ + x18_6_ <= 1
 R330: x14_7_ + x18_7_ <= 1
 R331: x14_8_ + x18_8_ <= 1
 R332: x14_9_ + x18_9_ <= 1
 R333: x4_0_ + x15_0_ <= 1
 R334: x4_1_ + x15_1_ <= 1
 R335: x4_2_ + x15_2_ <= 1
 R336: x4_3_ + x15_3_ <= 1
 R337: x4_4_ + x15_4_ <= 1
 R338: x4_5_ + x15_5_ <= 1
 R339: x4_6_ + x15_6_ <= 1
 R340: x4_7_ + x15_7_ <= 1
 R341: x4_8_ + x15_8_ <= 1
 R342: x4_9_ + x15_9_ <= 1
 R343: x13_0_ + x15_0_ <= 1
 R344: x13_1_ + x15_1_ <= 1
 R345: x13_2_ + x15_2_ <= 1
 R346: x13_3_ + x15_3_ <= 1
 R347: x13_4_ + x15_4_ <= 1
 R348: x13_5_ + x15_5_ <= 1
 R349: x13_6_ + x15_6_ <= 1
 R350: x13_7_ + x15_7_ <= 1
 R351: x13_8_ + x15_8_ <= 1
 R352: x13_9_ + x15_9_ <= 1
 R353: x15_0_ + x19_0_ <= 1
 R354: x15_1_ + x19_1_ <= 1
 R355: x15_2_ + x19_2_ <= 1
 R356: x15_3_ + x19_3_ <= 1
 R357: x15_4_ + x19_4_ <= 1
 R358: x15_5_ + x19_5_ <= 1
 R359: x15_6_ + x19_6_ <= 1
 R360: x15_7_ + x19_7_ <= 1
 R361: x15_8_ + x19_8_ <= 1
 R362: x15_9_ + x19_9_ <= 1
 R363: x0_0_ + x16_0_ <= 1
 R364: x0_1_ + x16_1_ <= 1
 R365: x0_2_ + x16_2_ <= 1
 R366: x0_3_ + x16_3_ <= 1
 R367: x0_4_ + x16_4_ <= 1
 R368: x0_5_ + x16_5_ <= 1
 R369: x0_6_ + x16_6_ <= 1
 R370: x0_7_ + x16_7_ <= 1
 R371: x0_8_ + x16_8_ <= 1
 R372: x0_9_ + x16_9_ <= 1
 R373: x11_0_ + x16_0_ <= 1
 R374: x11_1_ + x16_1_ <= 1
 R375: x11_2_ + x16_2_ <= 1
 R376: x11_3_ + x16_3_ <= 1
 R377: x11_4_ + x16_4_ <= 1
 R378: x11_5_ + x16_5_ <= 1
 R379: x11_6_ + x16_6_ <= 1
 R380: x11_7_ + x16_7_ <= 1
 R381: x11_8_ + x16_8_ <= 1
 R382: x11_9_ + x16_9_ <= 1
 R383: x3_0_ + x17_0_ <= 1
 R384: x3_1_ + x17_1_ <= 1
 R385: x3_2_ + x17_2_ <= 1
 R386: x3_3_ + x17_3_ <= 1
 R387: x3_4_ + x17_4_ <= 1
 R388: x3_5_ + x17_5_ <= 1
 R389: x3_6_ + x17_6_ <= 1
 R390: x3_7_ + x17_7_ <= 1
 R391: x3_8_ + x17_8_ <= 1
 R392: x3_9_ + x17_9_ <= 1
 R393: x4_0_ + x17_0_ <= 1
 R394: x4_1_ + x17_1_ <= 1
 R395: x4_2_ + x17_2_ <= 1
 R396: x4_3_ + x17_3_ <= 1
 R397: x4_4_ + x17_4_ <= 1
 R398: x4_5_ + x17_5_ <= 1
 R399: x4_6_ + x17_6_ <= 1
 R400: x4_7_ + x17_7_ <= 1
 R401: x4_8_ + x17_8_ <= 1
 R402: x4_9_ + x17_9_ <= 1
 R403: x3_6_ + x18_6_ <= 1
 R404: x3_7_ + x18_7_ <= 1
 R405: x3_8_ + x18_8_ <= 1
 R406: x3_9_ + x18_9_ <= 1
 R407: x4_6_ + x18_6_ <= 1
 R408: x4_7_ + x18_7_ <= 1
 R409: x4_8_ + x18_8_ <= 1
 R410: x4_9_ + x18_9_ <= 1
 R411: x14_6_ + x18_6_ <= 1
 R412: x14_7_ + x18_7_ <= 1
 R413: x14_8_ + x18_8_ <= 1
 R414: x14_9_ + x18_9_ <= 1
 R415: x17_6_ + x18_6_ <= 1
 R416: x17_7_ + x18_7_ <= 1
 R417: x17_8_ + x18_8_ <= 1
 R418: x17_9_ + x18_9_ <= 1
 R419: x4_0_ + x19_0_ <= 1
 R420: x4_1_ + x19_1_ <= 1
 R421: x4_2_ + x19_2_ <= 1
 R422: x4_3_ + x19_3_ <= 1
 R423: x4_4_ + x19_4_ <= 1
 R424: x4_5_ + x19_5_ <= 1
 R425: x4_6_ + x19_6_ <= 1
 R426: x4_7_ + x19_7_ <= 1
 R427: x4_8_ + x19_8_ <= 1
 R428: x4_9_ + x19_9_ <= 1
 R429: x15_0_ + x19_0_ <= 1
 R430: x15_1_ + x19_1_ <= 1
 R431: x15_2_ + x19_2_ <= 1
 R432: x15_3_ + x19_3_ <= 1
 R433: x15_4_ + x19_4_ <= 1
 R434: x15_5_ + x19_5_ <= 1
 R435: x15_6_ + x19_6_ <= 1
 R436: x15_7_ + x19_7_ <= 1
 R437: x15_8_ + x19_8_ <= 1
 R438: x15_9_ + x19_9_ <= 1
 R439: <= 1
 R440: 18 x0_0_ + 18 x0_1_ + 18 x0_2_ + 18 x0_3_ + 18 x0_4_ + 18 x0_5_
   + 14 x0_6_ + 4 x0_7_ + 4 x0_8_ + 4 x0_9_ + 288 x1_7_ + 288 x1_8_
   + 288 x1_9_ + 34 x2_7_ + 34 x2_8_ + 34 x2_9_ + 18 x3_0_ + 18 x3_1_
   + 18 x3_2_ + 18 x3_3_ + 18 x3_4_ + 18 x3_5_ + 14 x3_6_ + 4 x3_7_
   + 4 x3_8_ + 4 x3_9_ + 45 x4_0_ + 45 x4_1_ + 45 x4_2_ + 45 x4_3_
   + 45 x4_4_ + 45 x4_5_ + 35 x4_6_ + 10 x4_7_ + 10 x4_8_ + 10 x4_9_
   + 51 x5_7_ + 51 x5_8_ + 51 x5_9_ + 72 x6_7_ + 72 x6_8_ + 72 x6_9_
   + 17 x7_7_ + 17 x7_8_ + 17 x7_9_ + 72 x8_7_ + 72 x8_8_ + 72 x8_9_
   + 34 x9_7_ + 34 x9_8_ + 34 x9_9_ + 360 x10_7_ + 360 x10_8_ + 360 x10_9_
   + 27 x11_0_ + 27 x11_1_ + 27 x11_2_ + 27 x11_3_ + 27 x11_4_ + 27 x11_5_
   + 21 x11_6_ + 6 x11_7_ + 6 x11_8_ + 6 x11_9_ + 51 x12_7_ + 51 x12_8_
   + 51 x12_9_ + 9 x13_0_ + 9 x13_1_ + 9 x13_2_ + 9 x13_3_ + 9 x13_4_
   + 9 x13_5_ + 7 x13_6_ + 2 x13_7_ + 2 x13_8_ + 2 x13_9_ + 576 x14_7_
   + 576 x14_8_ + 576 x14_9_ + 27 x15_0_ + 27 x15_1_ + 27 x15_2_
   + 27 x15_3_ + 27 x15_4_ + 27 x15_5_ + 21 x15_6_ + 6 x15_7_ + 6 x15_8_
   + 6 x15_9_ + 36 x16_0_ + 36 x16_1_ + 36 x16_2_ + 36 x16_3_ + 36 x16_4_
   + 36 x16_5_ + 28 x16_6_ + 8 x16_7_ + 8 x16_8_ + 8 x16_9_ + 18 x17_0_
   + 18 x17_1_ + 18 x17_2_ + 18 x17_3_ + 18 x17_4_ + 18 x17_5_ + 14 x17_6_
   + 4 x17_7_ + 4 x17_8_ + 4 x17_9_ + 72 x18_7_ + 72 x18_8_ + 72 x18_9_
   + 9 x19_0_ + 9 x19_1_ + 9 x19_2_ + 9 x19_3_ + 9 x19_4_ + 9 x19_5_
   + 7 x19_6_ + 2 x19_7_ + 2 x19_8_ + 2 x19_9_ >= 1715
 R441: x0_0_ + x1_9_ + x2_n_ + x3_0_ + x4_4_ + x5_n_ + x6_7_ + x7_7_
   + x8_8_ + x9_n_ + x10_8_ + x11_3_ + x12_9_ + x13_4_ + x14_7_ + x15_3_
   + x16_4_ + x17_3_ + x18_8_ + x19_0_ <= 19
 R442: x0_0_ + x1_8_ + x2_n_ + x3_0_ + x4_4_ + x5_n_ + x6_7_ + x7_8_
   + x8_9_ + x9_n_ + x10_9_ + x11_3_ + x12_8_ + x13_4_ + x14_7_ + x15_3_
   + x16_4_ + x17_3_ + x18_9_ + x19_0_ <= 19
Bounds
Binaries
 x0_0_ x0_1_ x0_2_ x0_3_ x0_4_ x0_5_ x0_6_ x0_7_ x0_8_ x0_9_ x0_n_ x1_6_
 x1_7_ x1_8_ x1_9_ x1_n_ x2_7_ x2_8_ x2_9_ x2_n_ x3_0_ x3_1_ x3_2_ x3_3_
 x3_4_ x3_5_ x3_6_ x3_7_ x3_8_ x3_9_ x3_n_ x4_0_ x4_1_ x4_2_ x4_3_ x4_4_
 x4_5_ x4_6_ x4_7_ x4_8_ x4_9_ x4_n_ x5_7_ x5_8_ x5_9_ x5_n_ x6_6_ x6_7_
 x6_8_ x6_9_ x6_n_ x7_7_ x7_8_ x7_9_ x7_n_ x8_6_ x8_7_ x8_8_ x8_9_ x8_n_
 x9_7_ x9_8_ x9_9_ x9_n_ x10_6_ x10_7_ x10_8_ x10_9_ x10_n_ x11_0_ x11_1_
 x11_2_ x11_3_ x11_4_ x11_5_ x11_6_ x11_7_ x11_8_ x11_9_ x11_n_ x12_7_
 x12_8_ x12_9_ x12_n_ x13_0_ x13_1_ x13_2_ x13_3_ x13_4_ x13_5_ x13_6_
 x13_7_ x13_8_ x13_9_ x13_n_ x14_6_ x14_7_ x14_8_ x14_9_ x14_n_ x15_0_
 x15_1_ x15_2_ x15_3_ x15_4_ x15_5_ x15_6_ x15_7_ x15_8_ x15_9_ x15_n_
 x16_0_ x16_1_ x16_2_ x16_3_ x16_4_ x16_5_ x16_6_ x16_7_ x16_8_ x16_9_
 x16_n_ x17_0_ x17_1_ x17_2_ x17_3_ x17_4_ x17_5_ x17_6_ x17_7_ x17_8_
 x17_9_ x17_n_ x18_6_ x18_7_ x18_8_ x18_9_ x18_n_ x19_0_ x19_1_ x19_2_
 x19_3_ x19_4_ x19_5_ x19_6_ x19_7_ x19_8_ x19_9_ x19_n_
End
